data;
param nombreJob := 6;
param nombreRessource := 3;
param duree := 1 4 2 4 3 10 4 10 5 9 6 2;
param capaciteRessource := 1 8 2 16 3 16;
param besoinRessource : 1 2 3 :=
                    1   2 7 8
                    2   1 1 3
                    3   2 2 1
                    4   2 4 10
                    5   3 6 5
                    6   4 7 6;
end;

